9
0 1 41
0 2 67
0 3 34
0 4 0
0 5 69
0 6 24
0 7 78
0 8 58
1 2 62
1 3 64
1 4 5
1 5 45
1 6 81
1 7 27
1 8 61
2 3 91
2 4 95
2 5 42
2 6 27
2 7 36
2 8 91
3 4 4
3 5 2
3 6 53
3 7 92
3 8 82
4 5 21
4 6 16
4 7 18
4 8 95
5 6 47
5 7 26
5 8 71
6 7 38
6 8 69
7 8 12
